83967
[0, 2, 3, 4, 5, 1, 27, 28, 29, 33, 32, 31, 30, 26, 25, 34, 35, 24, 23, 22, 36, 45, 46, 47, 58, 59, 60, 61, 62, 63, 64, 65, 66, 67, 68, 69, 76, 75, 74, 73, 72, 77, 88, 89, 98, 99, 100, 101, 102, 114, 130, 131, 132, 133, 129, 128, 127, 126, 125, 124, 123, 122, 121, 120, 119, 118, 117, 116, 115, 134, 135, 136, 137, 138, 139, 140, 141, 142, 143, 87, 103, 104, 105, 106, 107, 108, 109, 110, 111, 112, 113, 85, 84, 83, 82, 81, 80, 79, 78, 86, 97, 96, 95, 94, 93, 92, 91, 90, 71, 70, 44, 43, 42, 57, 56, 55, 54, 53, 52, 51, 50, 49, 48, 37, 38, 39, 20, 19, 18, 7, 6, 8, 9, 10, 11, 17, 16, 40, 41, 15, 14, 13, 12, 21]
